139 139
1 1 1 1 1 1 1 1 1 1 1 1 1 1 1 1 1 1 1 1 1 1 1 1 1 1 1 1 1 1 1 1 1 1 1 1 1 1 1 1 1 1 1 1 1 1 1 1 1 1 1 1 1 1 1 1 1 1 1 1 1 1 1 1 1 1 1 1 1 1 1 1 1 1 1 1 1 1 1 1 1 1 1 1 1 1 1 1 1 1 1 1 1 1 1 1 1 1 1 1 1 1 1 1 1 1 1 1 1 1 1 1 1 1 1 1 1 1 1 1 1 1 1 1 1 1 1 1 1 1 1 1 1 1 1 1 1 1 1
42
1 2 4 5 7 8 10 12 13 17 25 27 30 31 38 42 44 46 47 48 54 60 62 65 66 68 69 70 73 74 77 80 81 82 110 111 112 115 121 132 136 138
47
1 2 8 9 17 18 21 22 25 27 38 39 41 42 46 50 52 54 55 56 57 58 59 60 63 65 66 67 69 70 72 73 77 78 79 80 82 83 92 95 98 101 111 121 122 124 138
5
3 20 40 129 139
41
1 4 5 7 8 10 12 17 19 23 25 31 38 42 46 47 48 54 60 65 66 68 69 70 74 77 80 82 92 93 106 110 111 112 113 114 115 117 121 132 136
45
1 4 5 7 8 10 12 13 17 23 25 31 38 42 44 46 47 48 50 54 60 62 65 66 68 69 70 73 74 77 80 81 82 106 110 111 112 113 114 115 121 125 126 132 136
19
6 11 14 24 26 28 29 32 37 43 45 49 51 64 76 94 103 131 137
38
1 4 5 7 8 10 12 13 17 19 23 25 31 38 42 44 47 48 54 60 62 65 66 68 69 74 77 81 82 93 106 110 111 112 114 115 132 136
54
1 2 4 5 7 8 9 10 12 13 16 17 18 21 22 25 27 30 38 42 44 46 47 48 50 54 60 65 66 67 68 69 70 73 74 77 78 80 81 82 86 87 92 101 109 111 112 115 121 122 126 132 136 138
38
2 8 9 17 18 21 22 27 38 39 41 42 46 52 55 56 57 58 59 63 65 67 70 72 77 78 79 80 83 92 95 98 101 102 111 121 122 124
41
1 4 5 7 8 10 12 13 17 23 25 31 38 42 44 47 48 54 60 62 65 66 68 69 74 77 80 81 82 92 110 111 112 113 114 115 117 121 125 132 136
18
6 11 14 24 26 28 29 32 43 45 49 51 64 76 85 94 131 137
43
1 4 5 7 8 10 12 16 17 25 33 38 42 44 46 47 48 50 54 60 65 66 69 73 74 77 80 81 82 86 87 92 109 110 111 112 114 115 121 125 126 132 136
15
1 5 7 8 10 13 30 31 44 62 73 77 81 111 138
25
6 11 14 15 24 26 28 29 32 37 43 45 49 51 61 64 76 94 103 123 130 131 134 135 137
23
14 15 26 28 29 32 37 43 49 61 64 71 76 91 94 103 104 123 130 131 134 135 137
22
8 12 16 25 33 38 42 50 69 74 75 82 87 92 108 109 114 115 125 126 132 136
67
1 2 4 5 7 8 9 10 12 17 18 21 22 25 27 38 39 41 42 44 46 47 48 50 52 54 55 56 57 58 59 60 63 65 66 67 68 69 70 72 73 74 77 78 79 80 82 83 88 92 95 98 100 101 102 111 112 113 115 117 120 121 122 124 132 136 138
41
2 8 9 17 18 21 22 27 38 39 41 42 46 52 55 56 57 58 59 63 65 67 70 72 73 77 78 79 80 83 92 95 98 101 102 111 120 121 122 124 138
15
4 7 19 34 47 54 74 93 110 112 114 115 116 132 136
6
3 20 35 40 129 139
48
2 8 9 17 18 21 22 25 27 38 39 41 42 46 48 50 52 54 55 56 57 58 59 60 63 65 66 67 69 70 72 77 78 79 80 83 88 92 95 98 101 102 111 113 120 121 122 124
50
2 8 9 17 18 21 22 25 27 38 39 41 42 46 48 50 52 54 55 56 57 58 59 63 65 66 67 69 70 72 77 78 79 80 83 88 92 95 98 100 101 102 111 113 117 120 121 122 124 138
11
4 5 7 10 23 31 68 106 110 112 132
19
6 11 14 24 26 28 29 32 37 43 49 51 61 64 76 85 94 131 137
52
1 2 4 5 7 8 10 12 16 17 21 22 25 27 38 42 44 46 47 48 50 54 60 65 66 67 68 69 70 73 74 77 78 80 81 82 92 93 110 111 112 113 114 115 117 121 122 125 126 132 136 138
26
6 11 14 15 24 26 28 29 32 37 43 45 49 51 61 64 76 91 94 103 123 130 131 134 135 137
51
1 2 8 9 17 18 21 22 25 27 38 39 41 42 44 46 48 50 52 54 55 56 57 58 59 63 65 66 67 69 70 72 73 74 77 78 79 80 82 83 92 95 98 101 102 111 120 121 122 124 138
24
6 11 14 15 24 26 28 29 32 37 43 45 49 64 76 91 94 103 123 130 131 134 135 137
26
6 11 14 15 24 26 28 29 32 37 43 45 49 51 61 64 76 91 94 103 123 130 131 134 135 137
13
1 8 13 30 44 73 77 80 81 86 109 111 138
21
1 4 5 7 10 13 23 31 44 47 54 60 62 68 74 81 93 110 112 132 136
26
6 11 14 15 24 26 28 29 32 37 43 45 49 51 61 64 76 91 94 103 123 130 131 134 135 137
13
12 16 33 42 50 75 80 82 86 87 108 109 121
5
19 34 93 110 114
4
20 35 40 129
2
36 128
21
6 14 15 24 26 28 29 32 37 49 61 64 71 76 91 94 103 123 130 134 137
63
1 2 4 5 7 8 9 10 12 16 17 18 21 22 25 27 38 41 42 46 47 48 50 52 54 55 56 57 58 60 63 65 66 67 68 69 70 73 74 77 78 79 80 82 83 92 93 95 98 101 110 111 112 113 114 115 117 121 122 126 132 136 138
32
2 9 17 18 21 22 27 39 41 52 53 55 57 58 59 63 67 72 78 79 80 83 88 92 95 98 101 102 120 121 122 124
6
3 20 35 40 129 139
38
2 9 17 18 21 22 27 38 39 41 46 52 55 56 57 58 59 63 65 67 70 72 77 78 79 83 88 92 95 98 101 102 111 113 120 121 122 124
54
1 2 4 5 7 8 9 10 12 16 17 18 21 22 25 27 33 38 42 44 46 47 48 50 54 57 65 66 69 70 73 74 75 77 78 80 81 82 86 87 92 108 109 111 112 115 117 121 122 125 126 132 136 138
19
6 11 14 15 24 26 28 29 32 43 49 64 76 94 130 131 134 135 137
29
1 5 7 8 10 12 13 17 25 27 30 31 42 44 46 62 65 73 77 78 80 81 82 86 109 111 121 136 138
13
6 11 14 26 28 29 32 45 49 64 76 94 137
52
1 2 4 5 8 9 12 17 18 21 22 25 27 38 41 42 44 46 48 50 52 54 55 56 57 60 65 66 67 69 70 73 74 77 78 79 80 81 82 83 86 92 95 101 109 111 115 121 122 132 136 138
40
1 4 5 7 8 10 12 17 19 25 31 38 42 47 48 50 54 60 66 68 69 74 82 92 93 96 106 110 111 112 114 115 116 117 125 126 127 132 133 136
49
1 4 5 7 8 10 12 17 21 22 25 27 38 42 46 47 48 50 52 54 56 60 65 66 67 68 69 70 74 77 78 80 82 92 93 95 110 111 112 113 114 115 117 121 122 125 126 132 136
27
6 11 14 15 24 26 28 29 32 37 43 45 49 61 64 71 76 91 94 103 104 123 130 131 134 135 137
45
2 5 8 12 16 17 21 22 25 27 33 38 42 46 47 48 50 54 56 65 66 69 70 74 75 77 78 80 82 86 87 92 108 109 111 114 115 116 117 121 122 125 126 132 136
11
6 11 14 24 26 29 32 51 76 94 137
46
2 9 17 18 21 22 27 38 39 41 46 48 52 54 55 56 57 58 59 60 63 65 66 67 68 70 72 77 78 79 80 83 88 92 95 98 100 101 102 111 113 117 120 121 122 124
4
39 53 102 120
59
1 2 4 5 7 8 10 12 17 19 21 22 25 27 31 38 42 46 47 48 50 52 54 56 60 65 66 67 68 69 70 74 77 78 80 82 83 88 92 93 95 96 98 100 101 110 111 112 113 114 115 117 118 121 122 125 126 132 136
33
2 9 17 18 21 22 27 38 39 41 46 52 55 56 57 58 59 63 67 70 72 78 79 83 92 95 98 101 102 120 121 122 124
38
2 9 17 18 21 22 27 38 41 46 48 50 52 54 55 56 57 58 59 60 63 65 67 70 72 77 78 79 83 92 95 98 101 111 121 122 124 132
37
2 9 17 18 21 22 27 38 39 41 42 46 52 55 56 57 58 59 63 67 72 78 79 80 83 88 92 95 98 101 102 111 117 120 121 122 124
35
2 9 17 18 21 22 27 38 39 41 52 55 56 57 58 59 63 66 67 72 78 79 83 88 92 95 98 100 101 102 117 120 121 122 124
31
2 9 17 18 21 22 27 39 41 52 55 56 57 58 59 63 67 72 78 79 83 88 92 95 98 101 102 120 121 122 124
37
1 2 4 5 7 8 10 12 17 21 25 31 38 46 47 48 52 54 56 60 65 66 68 70 73 74 77 82 92 110 111 112 113 115 121 132 136
16
14 15 24 26 29 32 37 49 61 71 76 91 103 123 130 137
12
1 5 7 10 13 31 44 62 73 81 111 112
33
2 9 17 18 21 22 27 38 39 41 52 55 56 57 58 59 63 67 72 78 79 80 83 88 92 95 98 101 102 120 121 122 124
23
6 11 14 15 24 26 28 29 32 37 43 45 49 64 76 94 103 123 130 131 134 135 137
52
1 2 4 5 7 8 9 10 12 17 18 21 22 25 27 38 41 42 44 46 48 50 52 54 56 60 65 66 67 68 69 70 73 74 77 78 80 81 82 86 92 95 101 109 111 112 115 121 122 132 136 138
56
1 2 4 5 7 8 10 12 17 21 22 25 27 38 42 46 47 48 50 52 54 58 60 65 66 67 68 69 70 73 74 77 78 80 82 88 92 95 96 98 100 101 110 111 112 113 114 115 117 118 121 122 125 126 132 136
46
2 8 9 17 18 21 22 25 27 38 39 41 46 48 52 54 55 56 57 58 59 63 65 66 67 69 70 72 74 77 78 79 80 83 88 92 95 98 101 102 111 117 120 121 122 124
35
1 4 5 7 8 10 17 23 25 31 38 47 48 52 54 60 65 66 68 69 70 74 77 80 92 93 110 111 112 113 115 117 121 132 136
50
1 2 4 5 7 8 10 12 16 17 21 22 25 27 38 42 46 47 48 50 54 65 66 67 68 69 70 74 77 78 80 82 87 92 93 96 110 111 112 113 114 115 117 121 122 125 126 127 132 136
47
1 2 4 5 8 9 17 18 21 22 25 27 38 41 42 46 48 50 52 54 55 56 60 65 66 67 68 69 70 73 74 77 78 80 82 83 92 95 101 111 112 113 115 121 122 132 138
12
15 37 49 61 71 84 89 91 103 123 130 137
32
2 9 17 18 21 22 27 39 41 52 55 56 57 58 59 63 67 72 78 79 80 83 88 92 95 98 101 102 120 121 122 124
32
1 2 5 8 12 13 17 18 25 27 30 38 42 44 46 60 62 65 66 70 73 77 78 80 81 82 86 109 111 121 136 138
51
1 4 5 7 8 10 12 16 17 19 25 27 31 38 42 46 47 48 50 54 60 65 66 67 68 69 70 74 77 78 80 82 92 93 96 100 110 111 112 113 114 115 117 118 121 122 125 126 127 132 136
10
16 33 42 50 75 87 102 108 109 126
23
6 11 14 15 24 26 28 29 32 37 43 45 49 51 61 64 76 94 130 131 134 135 137
50
1 2 4 5 7 8 9 10 12 13 17 18 21 22 25 27 30 38 41 42 44 46 48 50 52 54 56 60 65 66 67 68 69 70 73 74 77 78 80 81 82 92 101 111 112 121 122 132 136 138
51
2 8 9 17 18 21 22 25 27 38 39 41 42 44 46 48 50 52 54 55 56 57 58 59 63 65 66 67 69 70 72 73 74 77 78 79 80 83 88 92 95 98 101 102 111 117 120 121 122 124 138
34
2 9 17 18 21 22 27 38 39 41 46 52 55 56 57 58 59 63 67 72 78 79 80 83 88 92 95 98 101 102 120 121 122 124
57
1 2 4 5 8 9 10 12 17 18 21 22 25 27 30 33 38 39 42 44 46 48 50 52 54 57 63 65 66 67 68 69 70 72 73 74 77 78 79 80 81 82 86 87 92 101 108 109 111 115 121 122 124 126 132 136 138
26
1 5 7 8 10 12 13 25 30 31 42 44 46 62 65 73 77 80 81 82 86 109 111 132 136 138
46
1 2 4 5 7 8 10 12 16 17 25 27 33 38 42 44 46 47 48 50 54 60 65 66 69 70 73 74 77 80 81 82 86 87 92 108 109 111 112 114 115 121 125 126 132 136
36
2 9 17 18 21 22 27 38 39 41 46 52 54 55 56 57 58 59 63 67 70 72 78 79 83 88 92 95 98 101 102 113 120 121 122 124
4
71 84 89 99
3
11 24 85
18
8 12 30 33 42 44 46 50 65 73 80 81 82 86 87 108 109 121
18
8 12 16 33 42 50 69 75 80 82 86 87 108 109 115 125 126 136
29
17 21 22 39 41 52 54 57 58 59 63 66 67 72 78 79 83 88 90 92 95 98 100 101 102 117 120 122 124
4
71 84 89 99
5
88 90 100 117 118
16
15 26 28 29 32 37 49 61 71 91 94 103 123 130 134 137
64
2 4 8 9 10 12 16 17 18 21 22 25 27 38 39 41 42 46 47 48 50 52 54 55 56 57 58 59 60 63 65 66 67 68 69 70 72 74 77 78 79 80 82 83 88 92 95 98 100 101 102 111 112 113 115 117 120 121 122 124 125 126 132 136
21
4 7 19 25 31 34 38 47 48 54 68 69 74 93 110 112 114 115 125 132 136
25
6 11 14 15 24 26 28 29 32 37 43 45 49 51 64 76 91 94 103 123 130 131 134 135 137
40
2 9 17 18 21 22 27 38 39 41 46 48 52 54 55 56 57 58 59 63 65 66 67 70 72 78 79 83 88 92 95 98 100 101 102 113 120 121 122 124
12
47 54 66 69 74 96 114 115 117 118 125 136
1
97
36
2 9 17 18 21 22 27 38 39 41 52 54 55 56 57 58 59 63 66 67 72 78 79 83 88 92 95 98 100 101 102 117 120 121 122 124
3
84 89 99
17
17 22 52 54 58 66 74 88 90 92 95 98 100 117 118 119 120
43
2 8 9 17 18 21 22 27 38 39 41 46 52 54 55 56 57 58 59 63 65 66 67 70 72 77 78 79 80 83 88 92 95 98 101 102 111 113 117 120 121 122 124
32
9 17 18 21 22 27 39 41 52 53 55 57 58 59 63 67 72 75 78 79 83 88 92 95 98 101 102 117 120 121 122 124
19
6 14 15 26 28 29 32 37 49 61 64 71 91 94 103 123 130 134 137
5
15 49 104 105 131
8
104 105 114 115 116 125 126 127
12
4 5 7 23 47 106 107 110 112 114 132 133
3
106 107 133
12
16 33 42 50 75 80 82 86 87 108 109 126
20
8 12 16 30 33 42 44 46 50 65 73 75 80 81 82 86 87 108 109 121
29
1 4 5 7 10 12 19 23 25 31 34 38 47 48 54 60 66 68 69 74 93 106 110 112 113 114 115 132 136
56
1 2 4 5 7 8 9 10 12 13 17 18 21 22 25 27 30 38 41 42 44 46 47 48 50 52 54 56 57 60 62 65 66 67 68 69 70 73 74 77 78 80 81 82 92 101 111 112 113 115 117 121 122 132 136 138
40
1 4 5 7 8 10 12 17 19 23 25 31 38 42 47 48 54 60 62 65 66 68 69 70 74 77 82 92 93 106 110 111 112 113 114 115 117 121 132 136
31
4 5 10 17 21 22 25 38 41 48 52 54 60 66 68 69 70 74 83 92 95 101 110 111 112 113 117 121 122 132 136
33
4 5 7 10 12 16 19 25 34 38 47 48 50 54 66 69 74 82 93 96 105 106 110 112 114 115 116 125 126 127 132 133 136
45
1 4 5 7 8 10 12 16 17 19 25 38 42 46 47 48 50 54 60 65 66 68 69 70 74 80 82 87 92 93 96 105 110 111 112 114 115 116 117 121 125 126 127 132 136
11
19 47 50 105 114 115 116 125 126 127 132
40
4 10 17 22 25 38 42 47 48 50 52 54 57 58 66 67 68 69 74 78 88 90 92 96 98 100 101 102 111 112 113 115 117 118 120 121 122 125 126 136
8
54 66 74 90 96 100 117 118
2
100 119
30
17 18 21 22 27 39 41 52 53 55 57 58 59 63 67 72 78 79 83 88 92 95 98 100 101 102 117 120 122 124
66
1 2 4 5 8 9 10 12 17 18 21 22 25 27 33 38 39 41 42 44 46 48 50 52 54 55 56 57 58 59 60 63 65 66 67 68 69 70 72 73 74 77 78 79 80 82 83 86 92 95 98 101 102 109 111 112 113 115 117 121 122 124 126 132 136 138
50
2 8 9 17 18 21 22 25 27 38 39 41 42 46 48 50 52 54 55 56 57 58 59 63 65 66 67 69 70 72 74 77 78 79 80 83 88 92 95 98 101 102 111 113 117 120 121 122 124 138
19
14 15 26 28 29 32 37 49 61 64 71 91 94 103 123 130 134 135 137
32
2 9 17 18 21 22 27 39 41 52 55 56 57 58 59 63 67 72 78 79 80 83 88 92 95 98 101 102 120 121 122 124
28
5 10 12 16 25 42 47 48 50 54 66 69 74 82 87 92 93 96 105 114 115 116 117 125 126 127 132 136
31
5 8 12 16 25 38 42 47 48 50 54 66 69 74 75 80 82 87 92 105 108 114 115 116 117 121 125 126 127 132 136
12
47 69 74 105 114 115 116 125 126 127 133 136
2
36 128
6
3 20 35 40 129 139
22
14 15 26 28 29 32 37 43 49 61 64 71 76 91 94 103 123 130 131 134 135 137
20
6 11 14 15 24 26 28 29 32 43 49 64 76 94 104 130 131 134 135 137
47
1 4 5 7 8 10 12 16 17 19 23 25 31 38 42 46 47 48 50 54 56 60 65 66 68 69 70 74 77 80 81 82 92 93 106 110 111 112 113 114 115 116 121 125 126 132 136
6
47 106 107 114 127 133
19
14 15 26 28 29 32 37 43 49 64 76 91 94 103 123 130 131 134 135
16
14 15 26 28 29 32 43 49 64 76 94 123 130 131 134 135
48
1 4 5 7 8 10 12 16 17 19 25 31 38 42 44 46 47 48 50 54 60 65 66 68 69 73 74 77 80 81 82 87 92 93 96 110 111 112 113 114 115 117 121 125 126 127 132 136
25
6 11 14 15 24 26 28 29 32 37 43 45 49 51 61 64 71 76 91 94 103 123 130 131 137
25
1 2 8 13 17 18 22 25 27 30 38 42 44 46 65 70 73 77 78 80 81 111 121 122 138
5
3 20 40 129 139
